c This file is generated by _findSolu
c Generated on Mon Nov  9 21:35:45 2015
p cnf 452 1270
1 48 0
-1 -48 0
2 49 0
-2 -49 0
4 50 0
-4 -50 0
6 51 0
-6 -51 0
8 52 0
-8 -52 0
10 53 0
-10 -53 0
12 54 0
-12 -54 0
14 55 0
-14 -55 0
16 56 0
-16 -56 0
18 57 0
-18 -57 0
20 58 0
-20 -58 0
22 59 0
-22 -59 0
24 60 0
-24 -60 0
26 61 0
-26 -61 0
28 62 0
-28 -62 0
30 63 0
-30 -63 0
32 64 0
-32 -64 0
34 65 0
-34 -65 0
-48 -2 -66 0
48 66 0
2 66 0
3 49 67 0
-3 -67 0
-49 -67 0
5 49 68 0
-5 -68 0
-49 -68 0
-50 -6 -69 0
50 69 0
6 69 0
-52 -10 -70 0
52 70 0
10 70 0
-54 -14 -71 0
54 71 0
14 71 0
-56 -18 -72 0
56 72 0
18 72 0
-58 -22 -73 0
58 73 0
22 73 0
-60 -26 -74 0
60 74 0
26 74 0
-62 -30 -75 0
62 75 0
30 75 0
-64 -34 -76 0
64 76 0
34 76 0
7 51 77 0
-7 -77 0
-51 -77 0
9 51 78 0
-9 -78 0
-51 -78 0
11 53 79 0
-11 -79 0
-53 -79 0
13 53 80 0
-13 -80 0
-53 -80 0
15 55 81 0
-15 -81 0
-55 -81 0
17 55 82 0
-17 -82 0
-55 -82 0
19 57 83 0
-19 -83 0
-57 -83 0
21 57 84 0
-21 -84 0
-57 -84 0
23 59 85 0
-23 -85 0
-59 -85 0
25 59 86 0
-25 -86 0
-59 -86 0
27 61 87 0
-27 -87 0
-61 -87 0
29 61 88 0
-29 -88 0
-61 -88 0
31 63 89 0
-31 -89 0
-63 -89 0
33 63 90 0
-33 -90 0
-63 -90 0
35 65 91 0
-35 -91 0
-65 -91 0
36 65 92 0
-36 -92 0
-65 -92 0
-66 -203 -70 -71 -72 -73 -74 -75 -76 93 0
66 -93 0
203 -93 0
70 -93 0
71 -93 0
72 -93 0
73 -93 0
74 -93 0
75 -93 0
76 -93 0
93 94 0
-93 -94 0
93 95 0
-93 -95 0
93 41 0
-93 -41 0
-94 -66 -96 0
94 66 -96 0
94 -66 96 0
-94 66 96 0
-94 -203 -97 0
94 203 -97 0
94 -203 97 0
-94 203 97 0
-94 -70 -98 0
94 70 -98 0
94 -70 98 0
-94 70 98 0
-94 -71 -99 0
94 71 -99 0
94 -71 99 0
-94 71 99 0
-94 -72 -100 0
94 72 -100 0
94 -72 100 0
-94 72 100 0
-94 -73 -101 0
94 73 -101 0
94 -73 101 0
-94 73 101 0
-1 -95 -102 0
1 102 0
95 102 0
-94 -74 -103 0
94 74 -103 0
94 -74 103 0
-94 74 103 0
-95 -4 -104 0
95 104 0
4 104 0
-94 -75 -105 0
94 75 -105 0
94 -75 105 0
-94 75 105 0
-95 -8 -106 0
95 106 0
8 106 0
-94 -76 -107 0
94 76 -107 0
94 -76 107 0
-94 76 107 0
-95 -12 -108 0
95 108 0
12 108 0
-95 -16 -109 0
95 109 0
16 109 0
-95 -20 -110 0
95 110 0
20 110 0
-95 -24 -111 0
95 111 0
24 111 0
-95 -28 -112 0
95 112 0
28 112 0
-95 -32 -113 0
95 113 0
32 113 0
-96 -67 -114 0
96 114 0
67 114 0
-96 -68 -115 0
96 115 0
68 115 0
-97 -77 -116 0
97 116 0
77 116 0
-98 -79 -117 0
98 117 0
79 117 0
-99 -81 -118 0
99 118 0
81 118 0
-100 -83 -119 0
100 119 0
83 119 0
-101 -85 -120 0
101 120 0
85 120 0
-103 -87 -121 0
103 121 0
87 121 0
-105 -89 -122 0
105 122 0
89 122 0
-107 -91 -123 0
107 123 0
91 123 0
-97 -78 -124 0
97 124 0
78 124 0
-98 -80 -125 0
98 125 0
80 125 0
-99 -82 -126 0
99 126 0
82 126 0
-100 -84 -127 0
100 127 0
84 127 0
-101 -86 -128 0
101 128 0
86 128 0
-103 -88 -129 0
103 129 0
88 129 0
-105 -90 -130 0
105 130 0
90 130 0
-107 -92 -131 0
107 131 0
92 131 0
-114 -116 -117 -118 -119 -120 -121 -122 -123 132 0
114 -132 0
116 -132 0
117 -132 0
118 -132 0
119 -132 0
120 -132 0
121 -132 0
122 -132 0
123 -132 0
115 133 0
-115 -133 0
124 134 0
-124 -134 0
125 135 0
-125 -135 0
126 136 0
-126 -136 0
127 137 0
-127 -137 0
128 138 0
-128 -138 0
129 139 0
-129 -139 0
130 140 0
-130 -140 0
131 141 0
-131 -141 0
132 142 0
-132 -142 0
132 143 0
-132 -143 0
132 42 0
-132 -42 0
-142 -114 -144 0
142 114 -144 0
142 -114 144 0
-142 114 144 0
-142 -116 -145 0
142 116 -145 0
142 -116 145 0
-142 116 145 0
-142 -117 -146 0
142 117 -146 0
142 -117 146 0
-142 117 146 0
-142 -118 -147 0
142 118 -147 0
142 -118 147 0
-142 118 147 0
-3 -143 -148 0
3 148 0
143 148 0
-142 -119 -149 0
142 119 -149 0
142 -119 149 0
-142 119 149 0
-143 -7 -150 0
143 150 0
7 150 0
-142 -120 -151 0
142 120 -151 0
142 -120 151 0
-142 120 151 0
-143 -11 -152 0
143 152 0
11 152 0
-142 -121 -153 0
142 121 -153 0
142 -121 153 0
-142 121 153 0
-143 -15 -154 0
143 154 0
15 154 0
-142 -122 -155 0
142 122 -155 0
142 -122 155 0
-142 122 155 0
-143 -19 -156 0
143 156 0
19 156 0
-142 -123 -157 0
142 123 -157 0
142 -123 157 0
-142 123 157 0
-143 -23 -158 0
143 158 0
23 158 0
-143 -27 -159 0
143 159 0
27 159 0
-143 -31 -160 0
143 160 0
31 160 0
-143 -35 -161 0
143 161 0
35 161 0
-144 -133 -162 0
144 162 0
133 162 0
-145 -134 -163 0
145 163 0
134 163 0
-146 -135 -164 0
146 164 0
135 164 0
-147 -136 -165 0
147 165 0
136 165 0
-149 -137 -166 0
149 166 0
137 166 0
-151 -138 -167 0
151 167 0
138 167 0
-153 -139 -168 0
153 168 0
139 168 0
-155 -140 -169 0
155 169 0
140 169 0
-157 -141 -170 0
157 170 0
141 170 0
-162 -163 -164 -165 -166 -167 -168 -169 -170 171 0
162 -171 0
163 -171 0
164 -171 0
165 -171 0
166 -171 0
167 -171 0
168 -171 0
169 -171 0
170 -171 0
171 172 0
-171 -172 0
171 43 0
-171 -43 0
-5 -172 -173 0
5 173 0
172 173 0
-172 -9 -174 0
172 174 0
9 174 0
-172 -13 -175 0
172 175 0
13 175 0
-172 -17 -176 0
172 176 0
17 176 0
-172 -21 -177 0
172 177 0
21 177 0
-172 -25 -178 0
172 178 0
25 178 0
-172 -29 -179 0
172 179 0
29 179 0
-172 -33 -180 0
172 180 0
33 180 0
-172 -36 -181 0
172 181 0
36 181 0
-2 -102 -148 -173 -182 0
2 182 0
102 182 0
148 182 0
173 182 0
-104 -150 -174 -6 -183 0
104 183 0
150 183 0
174 183 0
6 183 0
-106 -152 -175 -10 -184 0
106 184 0
152 184 0
175 184 0
10 184 0
-108 -154 -176 -14 -185 0
108 185 0
154 185 0
176 185 0
14 185 0
-109 -156 -177 -18 -186 0
109 186 0
156 186 0
177 186 0
18 186 0
-110 -158 -178 -22 -187 0
110 187 0
158 187 0
178 187 0
22 187 0
-111 -159 -179 -26 -188 0
111 188 0
159 188 0
179 188 0
26 188 0
-112 -160 -180 -30 -189 0
112 189 0
160 189 0
180 189 0
30 189 0
-113 -161 -181 -34 -190 0
113 190 0
161 190 0
181 190 0
34 190 0
182 191 0
-182 -191 0
-183 -184 -185 -186 -187 -188 -189 -190 192 0
183 -192 0
184 -192 0
185 -192 0
186 -192 0
187 -192 0
188 -192 0
189 -192 0
190 -192 0
185 193 0
-185 -193 0
187 194 0
-187 -194 0
188 195 0
-188 -195 0
189 196 0
-189 -196 0
191 192 44 0
-191 -44 0
-192 -44 0
-184 -193 -197 0
184 197 0
193 197 0
-184 -185 -194 -186 -198 0
184 198 0
185 198 0
194 198 0
186 198 0
-186 -185 -195 -199 0
186 199 0
185 199 0
195 199 0
-184 -185 -188 -196 -200 0
184 200 0
185 200 0
188 200 0
196 200 0
-183 -184 -197 -186 -45 0
183 45 0
184 45 0
197 45 0
186 45 0
-183 -184 -198 -199 -46 0
183 46 0
184 46 0
198 46 0
199 46 0
-183 -197 -198 -200 -47 0
183 47 0
197 47 0
198 47 0
200 47 0
37 201 0
-37 -201 0
38 202 0
-38 -202 0
-5 -201 204 0
5 -204 0
201 -204 0
-69 -37 205 0
69 -205 0
37 -205 0
-28 -201 206 0
28 -206 0
201 -206 0
-69 -37 207 0
69 -207 0
37 -207 0
-204 -202 208 0
204 -208 0
202 -208 0
-205 -38 209 0
205 -209 0
38 -209 0
-206 -202 210 0
206 -210 0
202 -210 0
-207 -38 211 0
207 -211 0
38 -211 0
208 209 -212 0
-208 212 0
-209 212 0
210 212 -213 0
-210 213 0
-212 213 0
213 211 -203 0
-213 203 0
-211 203 0
39 214 0
-39 -214 0
40 215 0
-40 -215 0
-5 -214 217 0
5 -217 0
214 -217 0
-69 -39 218 0
69 -218 0
39 -218 0
-28 -214 219 0
28 -219 0
214 -219 0
-69 -39 220 0
69 -220 0
39 -220 0
-217 -215 221 0
217 -221 0
215 -221 0
-218 -40 222 0
218 -222 0
40 -222 0
-219 -215 223 0
219 -223 0
215 -223 0
-220 -40 224 0
220 -224 0
40 -224 0
221 222 -225 0
-221 225 0
-222 225 0
223 225 -226 0
-223 226 0
-225 226 0
226 224 -216 0
-226 216 0
-224 216 0
-1 0
-2 0
-3 0
-4 0
5 0
6 0
-7 0
-8 0
-9 0
-10 0
-11 0
-12 0
-13 0
14 0
15 0
16 0
17 0
18 0
-19 0
-20 0
-21 0
22 0
23 0
-24 0
-25 0
26 0
27 0
-28 0
29 0
30 0
31 0
-32 0
-33 0
-34 0
-35 0
-36 0
41 0
42 0
43 0
44 0
45 0
46 0
47 0
c New duplicated circuit:
227 274 0
-227 -274 0
228 275 0
-228 -275 0
230 276 0
-230 -276 0
232 277 0
-232 -277 0
234 278 0
-234 -278 0
236 279 0
-236 -279 0
238 280 0
-238 -280 0
240 281 0
-240 -281 0
242 282 0
-242 -282 0
244 283 0
-244 -283 0
246 284 0
-246 -284 0
248 285 0
-248 -285 0
250 286 0
-250 -286 0
252 287 0
-252 -287 0
254 288 0
-254 -288 0
256 289 0
-256 -289 0
258 290 0
-258 -290 0
260 291 0
-260 -291 0
-274 -228 -292 0
274 292 0
228 292 0
229 275 293 0
-229 -293 0
-275 -293 0
231 275 294 0
-231 -294 0
-275 -294 0
-276 -232 -295 0
276 295 0
232 295 0
-278 -236 -296 0
278 296 0
236 296 0
-280 -240 -297 0
280 297 0
240 297 0
-282 -244 -298 0
282 298 0
244 298 0
-284 -248 -299 0
284 299 0
248 299 0
-286 -252 -300 0
286 300 0
252 300 0
-288 -256 -301 0
288 301 0
256 301 0
-290 -260 -302 0
290 302 0
260 302 0
233 277 303 0
-233 -303 0
-277 -303 0
235 277 304 0
-235 -304 0
-277 -304 0
237 279 305 0
-237 -305 0
-279 -305 0
239 279 306 0
-239 -306 0
-279 -306 0
241 281 307 0
-241 -307 0
-281 -307 0
243 281 308 0
-243 -308 0
-281 -308 0
245 283 309 0
-245 -309 0
-283 -309 0
247 283 310 0
-247 -310 0
-283 -310 0
249 285 311 0
-249 -311 0
-285 -311 0
251 285 312 0
-251 -312 0
-285 -312 0
253 287 313 0
-253 -313 0
-287 -313 0
255 287 314 0
-255 -314 0
-287 -314 0
257 289 315 0
-257 -315 0
-289 -315 0
259 289 316 0
-259 -316 0
-289 -316 0
261 291 317 0
-261 -317 0
-291 -317 0
262 291 318 0
-262 -318 0
-291 -318 0
-292 -429 -296 -297 -298 -299 -300 -301 -302 319 0
292 -319 0
429 -319 0
296 -319 0
297 -319 0
298 -319 0
299 -319 0
300 -319 0
301 -319 0
302 -319 0
319 320 0
-319 -320 0
319 321 0
-319 -321 0
319 267 0
-319 -267 0
-320 -292 -322 0
320 292 -322 0
320 -292 322 0
-320 292 322 0
-320 -429 -323 0
320 429 -323 0
320 -429 323 0
-320 429 323 0
-320 -296 -324 0
320 296 -324 0
320 -296 324 0
-320 296 324 0
-320 -297 -325 0
320 297 -325 0
320 -297 325 0
-320 297 325 0
-320 -298 -326 0
320 298 -326 0
320 -298 326 0
-320 298 326 0
-320 -299 -327 0
320 299 -327 0
320 -299 327 0
-320 299 327 0
-227 -321 -328 0
227 328 0
321 328 0
-320 -300 -329 0
320 300 -329 0
320 -300 329 0
-320 300 329 0
-321 -230 -330 0
321 330 0
230 330 0
-320 -301 -331 0
320 301 -331 0
320 -301 331 0
-320 301 331 0
-321 -234 -332 0
321 332 0
234 332 0
-320 -302 -333 0
320 302 -333 0
320 -302 333 0
-320 302 333 0
-321 -238 -334 0
321 334 0
238 334 0
-321 -242 -335 0
321 335 0
242 335 0
-321 -246 -336 0
321 336 0
246 336 0
-321 -250 -337 0
321 337 0
250 337 0
-321 -254 -338 0
321 338 0
254 338 0
-321 -258 -339 0
321 339 0
258 339 0
-322 -293 -340 0
322 340 0
293 340 0
-322 -294 -341 0
322 341 0
294 341 0
-323 -303 -342 0
323 342 0
303 342 0
-324 -305 -343 0
324 343 0
305 343 0
-325 -307 -344 0
325 344 0
307 344 0
-326 -309 -345 0
326 345 0
309 345 0
-327 -311 -346 0
327 346 0
311 346 0
-329 -313 -347 0
329 347 0
313 347 0
-331 -315 -348 0
331 348 0
315 348 0
-333 -317 -349 0
333 349 0
317 349 0
-323 -304 -350 0
323 350 0
304 350 0
-324 -306 -351 0
324 351 0
306 351 0
-325 -308 -352 0
325 352 0
308 352 0
-326 -310 -353 0
326 353 0
310 353 0
-327 -312 -354 0
327 354 0
312 354 0
-329 -314 -355 0
329 355 0
314 355 0
-331 -316 -356 0
331 356 0
316 356 0
-333 -318 -357 0
333 357 0
318 357 0
-340 -342 -343 -344 -345 -346 -347 -348 -349 358 0
340 -358 0
342 -358 0
343 -358 0
344 -358 0
345 -358 0
346 -358 0
347 -358 0
348 -358 0
349 -358 0
341 359 0
-341 -359 0
350 360 0
-350 -360 0
351 361 0
-351 -361 0
352 362 0
-352 -362 0
353 363 0
-353 -363 0
354 364 0
-354 -364 0
355 365 0
-355 -365 0
356 366 0
-356 -366 0
357 367 0
-357 -367 0
358 368 0
-358 -368 0
358 369 0
-358 -369 0
358 268 0
-358 -268 0
-368 -340 -370 0
368 340 -370 0
368 -340 370 0
-368 340 370 0
-368 -342 -371 0
368 342 -371 0
368 -342 371 0
-368 342 371 0
-368 -343 -372 0
368 343 -372 0
368 -343 372 0
-368 343 372 0
-368 -344 -373 0
368 344 -373 0
368 -344 373 0
-368 344 373 0
-229 -369 -374 0
229 374 0
369 374 0
-368 -345 -375 0
368 345 -375 0
368 -345 375 0
-368 345 375 0
-369 -233 -376 0
369 376 0
233 376 0
-368 -346 -377 0
368 346 -377 0
368 -346 377 0
-368 346 377 0
-369 -237 -378 0
369 378 0
237 378 0
-368 -347 -379 0
368 347 -379 0
368 -347 379 0
-368 347 379 0
-369 -241 -380 0
369 380 0
241 380 0
-368 -348 -381 0
368 348 -381 0
368 -348 381 0
-368 348 381 0
-369 -245 -382 0
369 382 0
245 382 0
-368 -349 -383 0
368 349 -383 0
368 -349 383 0
-368 349 383 0
-369 -249 -384 0
369 384 0
249 384 0
-369 -253 -385 0
369 385 0
253 385 0
-369 -257 -386 0
369 386 0
257 386 0
-369 -261 -387 0
369 387 0
261 387 0
-370 -359 -388 0
370 388 0
359 388 0
-371 -360 -389 0
371 389 0
360 389 0
-372 -361 -390 0
372 390 0
361 390 0
-373 -362 -391 0
373 391 0
362 391 0
-375 -363 -392 0
375 392 0
363 392 0
-377 -364 -393 0
377 393 0
364 393 0
-379 -365 -394 0
379 394 0
365 394 0
-381 -366 -395 0
381 395 0
366 395 0
-383 -367 -396 0
383 396 0
367 396 0
-388 -389 -390 -391 -392 -393 -394 -395 -396 397 0
388 -397 0
389 -397 0
390 -397 0
391 -397 0
392 -397 0
393 -397 0
394 -397 0
395 -397 0
396 -397 0
397 398 0
-397 -398 0
397 269 0
-397 -269 0
-231 -398 -399 0
231 399 0
398 399 0
-398 -235 -400 0
398 400 0
235 400 0
-398 -239 -401 0
398 401 0
239 401 0
-398 -243 -402 0
398 402 0
243 402 0
-398 -247 -403 0
398 403 0
247 403 0
-398 -251 -404 0
398 404 0
251 404 0
-398 -255 -405 0
398 405 0
255 405 0
-398 -259 -406 0
398 406 0
259 406 0
-398 -262 -407 0
398 407 0
262 407 0
-228 -328 -374 -399 -408 0
228 408 0
328 408 0
374 408 0
399 408 0
-330 -376 -400 -232 -409 0
330 409 0
376 409 0
400 409 0
232 409 0
-332 -378 -401 -236 -410 0
332 410 0
378 410 0
401 410 0
236 410 0
-334 -380 -402 -240 -411 0
334 411 0
380 411 0
402 411 0
240 411 0
-335 -382 -403 -244 -412 0
335 412 0
382 412 0
403 412 0
244 412 0
-336 -384 -404 -248 -413 0
336 413 0
384 413 0
404 413 0
248 413 0
-337 -385 -405 -252 -414 0
337 414 0
385 414 0
405 414 0
252 414 0
-338 -386 -406 -256 -415 0
338 415 0
386 415 0
406 415 0
256 415 0
-339 -387 -407 -260 -416 0
339 416 0
387 416 0
407 416 0
260 416 0
408 417 0
-408 -417 0
-409 -410 -411 -412 -413 -414 -415 -416 418 0
409 -418 0
410 -418 0
411 -418 0
412 -418 0
413 -418 0
414 -418 0
415 -418 0
416 -418 0
411 419 0
-411 -419 0
413 420 0
-413 -420 0
414 421 0
-414 -421 0
415 422 0
-415 -422 0
417 418 270 0
-417 -270 0
-418 -270 0
-410 -419 -423 0
410 423 0
419 423 0
-410 -411 -420 -412 -424 0
410 424 0
411 424 0
420 424 0
412 424 0
-412 -411 -421 -425 0
412 425 0
411 425 0
421 425 0
-410 -411 -414 -422 -426 0
410 426 0
411 426 0
414 426 0
422 426 0
-409 -410 -423 -412 -271 0
409 271 0
410 271 0
423 271 0
412 271 0
-409 -410 -424 -425 -272 0
409 272 0
410 272 0
424 272 0
425 272 0
-409 -423 -424 -426 -273 0
409 273 0
423 273 0
424 273 0
426 273 0
263 427 0
-263 -427 0
264 428 0
-264 -428 0
-231 -427 430 0
231 -430 0
427 -430 0
-295 -263 431 0
295 -431 0
263 -431 0
-254 -427 432 0
254 -432 0
427 -432 0
-295 -263 433 0
295 -433 0
263 -433 0
-430 -428 434 0
430 -434 0
428 -434 0
-431 -264 435 0
431 -435 0
264 -435 0
-432 -428 436 0
432 -436 0
428 -436 0
-433 -264 437 0
433 -437 0
264 -437 0
434 435 -438 0
-434 438 0
-435 438 0
436 438 -439 0
-436 439 0
-438 439 0
439 437 -429 0
-439 429 0
-437 429 0
265 440 0
-265 -440 0
266 441 0
-266 -441 0
-231 -440 443 0
231 -443 0
440 -443 0
-295 -265 444 0
295 -444 0
265 -444 0
-254 -440 445 0
254 -445 0
440 -445 0
-295 -265 446 0
295 -446 0
265 -446 0
-443 -441 447 0
443 -447 0
441 -447 0
-444 -266 448 0
444 -448 0
266 -448 0
-445 -441 449 0
445 -449 0
441 -449 0
-446 -266 450 0
446 -450 0
266 -450 0
447 448 -451 0
-447 451 0
-448 451 0
449 451 -452 0
-449 452 0
-451 452 0
452 450 -442 0
-452 442 0
-450 442 0
37 -263 0
-37 263 0
38 -264 0
-38 264 0
39 -265 0
-39 265 0
40 -266 0
-40 266 0
-227 0
228 0
229 0
230 0
-231 0
232 0
-233 0
-234 0
235 0
236 0
237 0
-238 0
239 0
240 0
241 0
242 0
243 0
-244 0
245 0
246 0
-247 0
248 0
249 0
250 0
-251 0
252 0
253 0
-254 0
-255 0
256 0
257 0
258 0
259 0
260 0
-261 0
262 0
267 0
-268 0
269 0
-270 0
-271 0
-272 0
-273 0
